! B3LYP 6-31G* TIGHTSCF Grid3 FinalGrid5 Freq 
!NormalPrint 
%output 
Print[P_Basis] 2 
Print[P_MOS] 1 
end 
*xyzfile 0 1 /Users/lailaal-madhagi/Desktop/Testing_XAS_Analysis_code/Pyrrole//Results_dir_Pyrrole_geom_element_C_2019-11-27_22-27-37//GTE1_Pyrrole_geom_2019-11-27_22-27-45//opt.xyz 