! B3LYP 6-31G* TIGHTSCF Grid3 FinalGrid5 Freq 
!NormalPrint 
%output 
Print[P_Basis] 2 
Print[P_MOS] 1 
end 
*xyzfile 0 1 /Users/lailaal-madhagi/Desktop/Testing_XAS_Analysis_code/Aniline//Results_dir_Aniline_geom_element_C_2019-11-04_19-38-59//GTE1_Aniline_geom_2019-11-04_19-39-56//opt.xyz 