! B3LYP 6-31G* TIGHTSCF Grid3 FinalGrid5 Freq 
!NormalPrint 
%output 
Print[P_Basis] 2 
Print[P_MOS] 1 
end 
*xyzfile 0 1 /Users/lailaal-madhagi/Desktop/Testing_XAS_Analysis_code/2-1-3_Benzotrithiadizole//Results_dir_Benzotrithiadizole_geom_element_N_2019-11-14_07-17-39//GTE1_Benzotrithiadizole_geom_2019-11-14_07-17-55//opt.xyz 