! B3LYP 6-31G* TIGHTSCF Grid3 FinalGrid5 Freq 
!NormalPrint 
%output 
Print[P_Basis] 2 
Print[P_MOS] 1 
end 
*xyzfile 0 1 /Users/lailaal-madhagi/Desktop/Testing_XAS_Analysis_code/PhenylMethylKetone//Results_dir_PhenylMethylKetone_geom_element_O_2019-11-19_07-03-20//GTE1_PhenylMethylKetone_geom_2019-11-19_07-03-29//opt.xyz 