! B3LYP 6-31G* TIGHTSCF Grid3 FinalGrid5 Freq 
!NormalPrint 
%output 
Print[P_Basis] 2 
Print[P_MOS] 1 
end 
*xyzfile 0 1 /Users/lailaal-madhagi/Desktop/Testing_XAS_Analysis_code/PhenylAlanine//Results_dir_PhenylAlanine_geom_element_O_2019-11-18_00-35-02//GTE1_PhenylAlanine_geom_2019-11-18_00-35-14//opt.xyz 