! B3LYP 6-31G* TIGHTSCF Grid3 FinalGrid5 Freq 
!NormalPrint 
%output 
Print[P_Basis] 2 
Print[P_MOS] 1 
end 
*xyzfile 0 1 /Users/lailaal-madhagi/Desktop/Testing_XAS_Analysis_code/Acetone//Results_dir_Acetone_geom_element_C_2019-11-03_20-21-49//GTE1_Acetone_geom_2019-11-03_20-22-08//opt.xyz 