! B3LYP 6-31G* TIGHTSCF Grid3 FinalGrid5 Freq 
!NormalPrint 
%output 
Print[P_Basis] 2 
Print[P_MOS] 1 
end 
*xyzfile 0 1 /Users/lailaal-madhagi/Desktop/Testing_XAS_Analysis_code/Alanine//Results_dir_Alanine_geom_element_C_2019-11-03_21-44-41//GTE1_Alanine_geom_2019-11-03_21-44-56//opt.xyz 