! B3LYP 6-31G* TIGHTSCF Grid3 FinalGrid5 Freq 
!NormalPrint 
%output 
Print[P_Basis] 2 
Print[P_MOS] 1 
end 
*xyzfile 0 1 /Users/lailaal-madhagi/Desktop/Testing_XAS_Analysis_code/Benzaldehyde//Results_dir_Benzaldehyde_geom_element_O_2019-11-04_23-17-29//GTE1_Benzaldehyde_geom_2019-11-04_23-17-46//opt.xyz 