! B3LYP 6-31G* TIGHTSCF Grid3 FinalGrid5 Freq 
!NormalPrint 
%output 
Print[P_Basis] 2 
Print[P_MOS] 1 
end 
*xyzfile 0 1 /Users/lailaal-madhagi/Desktop/Testing_XAS_Analysis_code/DimethylCarbonate//Results_dir_DimethylCarbonate_geom_element_O_2019-11-10_19-14-55//GTE1_DimethylCarbonate_geom_2019-11-10_19-15-10//opt.xyz 