! B3LYP 6-31G* TIGHTSCF Grid3 FinalGrid5 Freq 
!NormalPrint 
%output 
Print[P_Basis] 2 
Print[P_MOS] 1 
end 
*xyzfile 0 1 /Users/lailaal-madhagi/Desktop/Testing_XAS_Analysis_code/Imidazole/Gas//Results_dir_Imidazole_geom_element_C_2019-11-03_16-19-41//GTE1_Imidazole_geom_2019-11-03_16-20-01//opt.xyz 