! B3LYP 6-31G* TIGHTSCF Grid3 FinalGrid5 Freq 
!NormalPrint 
%output 
Print[P_Basis] 2 
Print[P_MOS] 1 
end 
*xyzfile 0 1 /Users/lailaal-madhagi/Desktop/Testing_XAS_Analysis_code/Biuret//Results_dir_Biuret_geom_element_N_2019-11-07_23-08-54//GTE1_Biuret_geom_2019-11-07_23-09-30//opt.xyz 