#This is N K-edge calculation 
! B3LYP 6-31G* TIGHTSCF Grid3 FinalGrid5 
!NormalPrint 
%output 
Print[P_Basis] 2 
Print[P_MOS] 1 
end 

%tddft 
orbwin[0]=0,0,-1,-1 
nroots=20 
maxdim=200 
end 
*xyzfile 0 1 /Users/lailaal-madhagi/Desktop/Testing_XAS_Analysis_code/Acetonitrile//Results_dir_Acetonitrile_geom_element_N_2019-11-03_21-34-09//GTE1_Acetonitrile_geom_2019-11-03_21-34-28//opt.xyz 